(set-info :smt-lib-version 2.6)
(set-logic QF_S)
(set-info :source |
Generated by: Joel Day, Thorsten Ehlers, Mitja Kulczynski, Federico Mora, Florin Manea, Dirk Nowotka, Danny Poulsen, Zhengyang Lu
Application: Test WOORPJE
Target solver: WOORPJE
Publications: Day, J. D., Ehlers, T., Kulczynski, M., Manea, F., Nowotka, D., & Poulsen, D. B. (2019). On solving word equations using SAT. In RP 2019
Description: Transoformed and expanded from Track02
|)
(set-info :license "https://creativecommons.org/licenses/by/4.0/")
(set-info :category "random")
(set-info :status unknown)

(declare-fun N () String)
(declare-fun J () String)
(declare-fun H () String)
(declare-fun R () String)
(declare-fun V () String)
(declare-fun G () String)
(declare-fun L () String)
(declare-fun M () String)
(declare-fun P () String)
(declare-fun Q () String)
(assert (= (str.++  J G G "aa" J G G "ab" L L "b" P P "b" V)  (str.++  "a" G "a" G "a" H "a" G H M M M M "b" Q N Q N "b" R R "baa") ))
(assert (= N ""))
(assert (= R ""))
(assert (= Q ""))
(assert (= J "aaaa"))
(assert (= H "aaa"))
(assert (= V "bbaa"))
(assert (= G "a"))
(assert (= L "a"))
(assert (= M "aab"))
(assert (= P "aab"))
(check-sat)

(exit)
